n = 10
Q1 = [0 0 12 28 16 0 0 49 0 0; 0 0 0 0 37 0 17 34 5 40; 0 0 0 0 10 0 12 0 22 0; 0 0 0 0 29 0 0 42 0 0; 0 0 0 0 0 0 49 0 0 0; 0 0 0 0 0 0 46 42 22 0; 0 0 0 0 0 0 0 0 0 0; 0 0 0 0 0 0 0 0 0 0; 0 0 0 0 0 0 0 0 0 29; 0 0 0 0 0 0 0 0 0 0]
Q2 = [0.0 0.0 48.0 17.0 40.0 0.0 0.0 0.0 0.0 0.0; 0.0 0.0 0.0 0.0 0.0 0.0 33.0 2.0 46.0 0.0; 0.0 0.0 0.0 0.0 46.0 0.0 40.0 0.0 48.0 0.0; 0.0 0.0 0.0 0.0 13.0 0.0 0.0 4.0 0.0 0.0; 0.0 0.0 0.0 0.0 0.0 0.0 0.0 0.0 0.0 0.0; 0.0 0.0 0.0 0.0 0.0 0.0 3.0 1.0 38.0 0.0; 0.0 0.0 0.0 0.0 0.0 0.0 0.0 0.0 0.0 0.0; 0.0 0.0 0.0 0.0 0.0 0.0 0.0 0.0 0.0 0.0; 0.0 0.0 0.0 0.0 0.0 0.0 0.0 0.0 0.0 17.0; 0.0 0.0 0.0 0.0 0.0 0.0 0.0 0.0 0.0 0.0]
Q3 = [0 70 2 2 6 70 70 5 70 70; 0 0 70 70 30 70 5 5 17 23; 0 0 0 70 6 70 9 70 0 70; 0 0 0 0 2 70 70 8 70 70; 0 0 0 0 0 70 5 70 70 70; 0 0 0 0 0 0 13 5 10 70; 0 0 0 0 0 0 0 70 70 70; 0 0 0 0 0 0 0 0 70 70; 0 0 0 0 0 0 0 0 0 2; 0 0 0 0 0 0 0 0 0 0]
